
Log started (V11.0.0) Tue May 13 17:38:28 2008

Tried aggregator 1 time.
Reduced MIP has 110 rows, 1001 columns, and 2010 nonzeros.
Presolve time =    0.00 sec.
Clique table members: 100.
MIP emphasis: balance optimality and feasibility.
MIP search method: dynamic search.
Parallel mode: none, using 1 thread.
Root relaxation solution time =    0.02 sec.

        Nodes                                         Cuts/
   Node  Left     Objective  IInf  Best Integer     Best Node    ItCnt     Gap

*     0+    0                         5373.0000      319.9995      168   94.04%
*     0+    0                          334.0000      319.9995      168    4.19%
      0     0      320.7973    23      334.0000      Fract: 7      188    3.95%
      0     0      321.9282    36      334.0000      Cuts: 10      216    3.61%
      0     0      322.0283    38      334.0000       Cuts: 4      225    3.58%
      0     0      322.6015    38      334.0000       Cuts: 6      264    3.41%
      0     0      323.4264    33      334.0000       Cuts: 8      326    3.17%
      0     0      323.4264    37      334.0000    MIRcuts: 3      329    3.17%
      0     0      323.4325    43      334.0000    MIRcuts: 2      333    3.16%
*     0+    0                          333.0000      323.4325      333    2.87%
*     0+    0                          332.0000      323.4325      333    2.58%
      0     2      324.0000    40      332.0000      323.4325      333    2.58%
    100    88      326.0000    13      332.0000      324.0000     3424    2.41%
    200   155      331.0000    10      332.0000      324.0000     5288    2.41%
*   205+  144                          330.0000      324.0000     5334    1.82%
    300   226      326.0000    18      330.0000      324.0000     8430    1.82%
    400   300      326.0000    13      330.0000      324.0000    10671    1.82%
*   491+  250                          328.0000      325.0000    13261    0.91%
    500   254      325.0000     6      328.0000      325.0000    13314    0.91%
    600   268      326.0000     6      328.0000      325.0000    15996    0.91%
*   631+  193                          327.0000      325.0000    18062    0.61%
    700   188      326.0000    29      327.0000      325.0000    21454    0.61%
*   731+   53                          326.0000      325.0000    22939    0.31%

Cover cuts applied:  59
Mixed integer rounding cuts applied:  14
Gomory fractional cuts applied:  5

Solution pool: 8 solutions saved.

MIP - Integer optimal solution:  Objective = 3.2600000000e+002
Solution time =    5.17 sec.  Iterations = 38169  Nodes = 788


Incumbent solution
Variable Name           Solution Value
Cmax                        326.000000
X_1_3                         1.000000
X_2_10                        1.000000
X_3_6                         1.000000
X_4_10                        1.000000
X_5_6                         1.000000
X_6_2                         1.000000
X_7_2                         1.000000
X_8_4                         1.000000
X_9_6                         1.000000
X_10_9                        1.000000
X_11_6                        1.000000
X_12_2                        1.000000
X_13_3                        1.000000
X_14_3                        1.000000
X_15_10                       1.000000
X_16_9                        1.000000
X_17_9                        1.000000
X_18_5                        1.000000
X_19_9                        1.000000
X_20_8                        1.000000
X_21_2                        1.000000
X_22_7                        1.000000
X_23_8                        1.000000
X_24_9                        1.000000
X_25_2                        1.000000
X_26_9                        1.000000
X_27_9                        1.000000
X_28_5                        1.000000
X_29_6                        1.000000
X_30_3                        1.000000
X_31_1                        1.000000
X_32_9                        1.000000
X_33_8                        1.000000
X_34_2                        1.000000
X_35_9                        1.000000
X_36_2                        1.000000
X_37_6                        1.000000
X_38_9                        1.000000
X_39_10                       1.000000
X_40_8                        1.000000
X_41_6                        1.000000
X_42_8                        1.000000
X_43_1                        1.000000
X_44_6                        1.000000
X_45_9                        1.000000
X_46_4                        1.000000
X_47_6                        1.000000
X_48_2                        1.000000
X_49_2                        1.000000
X_50_7                        1.000000
X_51_9                        1.000000
X_52_2                        1.000000
X_53_2                        1.000000
X_54_5                        1.000000
X_55_9                        1.000000
X_56_5                        1.000000
X_57_9                        1.000000
X_58_8                        1.000000
X_59_6                        1.000000
X_60_9                        1.000000
X_61_1                        1.000000
X_62_1                        1.000000
X_63_8                        1.000000
X_64_9                        1.000000
X_65_9                        1.000000
X_66_7                        1.000000
X_67_6                        1.000000
X_68_7                        1.000000
X_69_9                        1.000000
X_70_8                        1.000000
X_71_9                        1.000000
X_72_4                        1.000000
X_73_9                        1.000000
X_74_4                        1.000000
X_75_10                       1.000000
X_76_9                        1.000000
X_77_2                        1.000000
X_78_9                        1.000000
X_79_8                        1.000000
X_80_7                        1.000000
X_81_2                        1.000000
X_82_9                        1.000000
X_83_6                        1.000000
X_84_2                        1.000000
X_85_2                        1.000000
X_86_10                       1.000000
X_87_2                        1.000000
X_88_9                        1.000000
X_89_9                        1.000000
X_90_6                        1.000000
X_91_1                        1.000000
X_92_6                        1.000000
X_93_4                        1.000000
X_94_4                        1.000000
X_95_1                        1.000000
X_96_4                        1.000000
X_97_1                        1.000000
X_98_9                        1.000000
X_99_10                       1.000000
X_100_2                       1.000000
All other variables in the range 1-1001 are 0.
